outputs/case_48.model.txt
dissolve_reported_and_approved = True
stop_period_expiring = False
duty_of_loyalty = True
correction_reported = False
handling_system_established = False
applicant_phone = True
insured_email = True
internal_control_established = False
license_revoked = True
resume_reported_and_approved = False
company_stopped = True
audit_system_established = False
broker = True
separate_accounting_books = True
large_scale = False
publicly_listed = False
stop_period_expired = True
broker_or_agent_or_bank = True
shareholding_disclosed = False
within_designated_scope = True
written_analysis_report_provided = False
fee_disclosure_provided = False
needs_and_risk_assessed = False
days_since_event = 31
contact_info_provided_to_insurer = True
internal_operation_regulation_established = False
elderly_consumer_protection_included = False
electronic_policy_issued = False
notary = False
broker_appointed_as_required = True
insured_phone = True
applicant_email = True
company_dissolved = False
insurance_type_responsibility = True
stop_period_days = 365
extension_request_days_before_expiry = 0
basic_info_understood = False
correction_followed_up = False
duty_of_care = True
documents_retained = False
extension_requested = False
insurance_type_guarantee = True
fixed_office = True
annual_report_submitted = False
agent = False
internal_operation_regulation_implemented = False
inspection_conducted = True
resume_applied = False
stop_reported_and_approved = False
extension_count = 0
broker_license_canceled = False
document_retention = False
broker_shareholding_disclosure = False
fail_to_confirm_suitability_for_elderly = False
single_license = True
spread_false_information = False
insurance_insured = True
authorize_others_to_operate = False
misleading_promotion = False
fail_to_cancel_license_in_time = False
broker_company_no_license_cancellation = False
broker_company_stop_period_limit = True
internal_control_required = True
damage_insurance_image = False
coerce_or_induce_contract = False
unauthorized_advertisement = False
broker_company_stop_resume_dissolve = True
broker_company_license_revoked_for_no_resume = False
employ_unqualified_recruiters = False
criminal_conviction_for_fraud = False
internal_operation_regulation = False
violation_financial_or_business_management = False
sell_unapproved_foreign_policies = False
broker_duty_of_care = True
permit_others_to_use_license = False
electronic_policy_contact_info = True
fail_to_appoint_broker_after_employment = False
broker_report_and_fee_disclosure = False
unauthorized_stop_resume_dissolve = False
fail_to_report_to_trade_association = False
insurance_brokerage_stopped = False
reinsurance_brokerage_stopped = False
days_since_stop = 0
broker_company_report_stop_reinsurance_stop = True
violate_financial_management = False
embezzle_insurance_funds = False
inspection_and_correction = False
broker_duty_of_care_and_loyalty = True
April_1 = False
May_31 = False
non_calendar_fiscal_year = False
accounting_and_reporting = False
pay_commission_to_non_actual_recruiters = False
other_violations = False
broker_understanding_and_report = False
permit_granted = True
illegal_insurance_payments = False
license_required = True
charge_illegal_fees = False
fail_to_fill_recruitment_report = False
fixed_office_and_accounting = True
transfer_documents_without_consent = False
hold_conflicting_positions = False
false_or_incomplete_report = False
prohibited_behaviors = True
violate_business_management = False
false_report_on_license_application = False
induce_policy_surrender_or_loan = False
penalty = False
bond_deposited = True
conceal_important_contract_info = False
operate_outside_license_scope = False
contract_with_unapproved_insurer = False
induce_contract_termination_or_loan = False
license_issued = True